[2026-03-24T13:37:13.221Z] Pipeline "set_vm-3-t1_vm-3-t1_s008_g001" → 2026_03_24_13_37_13_set_vm-3-t1_vm-3-t1_s008_g001_max.sol
Set parameter Username
Set parameter LicenseID to value 2796068
Set parameter LogFile to value "gurobi.log"
Using license file /opt/gurobi/gurobi.lic
Academic license - for non-commercial use only - expires 2027-03-23

Gurobi Optimizer version 13.0.1 build v13.0.1rc0 (linux64 - "Ubuntu 24.04.4 LTS")
Copyright (c) 2026, Gurobi Optimization, LLC

Warning: Duplicate section found (read 'binary') - Is a variable name equal to an LP file format keyword?
Warning: Duplicate section found (read 'binary') - Is a variable name equal to an LP file format keyword?
Warning: Duplicate section found (read 'binary') - Is a variable name equal to an LP file format keyword?
Warning: Duplicate section found (read 'binary') - Is a variable name equal to an LP file format keyword?
Warning: Duplicate section found (read 'binary') - Is a variable name equal to an LP file format keyword?
Warning: Duplicate section found (read 'binary') - Is a variable name equal to an LP file format keyword?
Warning: Duplicate section found (read 'binary') - Is a variable name equal to an LP file format keyword?
Warning: Duplicate section found (read 'binary') - Is a variable name equal to an LP file format keyword?
Warning: Duplicate section found (read 'binary') - Is a variable name equal to an LP file format keyword?
Warning: Duplicate section found (read 'binary') - Is a variable name equal to an LP file format keyword?
Warning: Further warnings of this type will be omitted.
Read LP format model from file /root/bgw/data/uploads/2026_03_24_13_37_13_set_vm-3-t1_vm-3-t1_s008_g001_max.lp
Reading time = 0.00 seconds
: 2003 rows, 242 columns, 5993 nonzeros

Using Gurobi shared library /opt/gurobi1301/linux64/lib/libgurobi.so.13.0.1

CPU model: AMD EPYC-Genoa Processor, instruction set [SSE2|AVX|AVX2|AVX512]
Thread count: 16 physical cores, 16 logical processors, using up to 16 threads

Optimize a model with 2003 rows, 242 columns and 5993 nonzeros (Max)
Model fingerprint: 0x3bfb6c08
Model has 21 linear objective coefficients
Variable types: 39 continuous, 203 integer (203 binary)
Coefficient statistics:
  Matrix range     [1e+00, 2e+01]
  Objective range  [1e+00, 1e+00]
  Bounds range     [1e+00, 1e+00]
  RHS range        [1e+00, 2e+01]

Found heuristic solution: objective 21.0000000
Presolve removed 334 rows and 67 columns
Presolve time: 0.01s
Presolved: 1669 rows, 175 columns, 5112 nonzeros
Variable types: 0 continuous, 175 integer (168 binary)
Found heuristic solution: objective 42.0000000

Root relaxation: objective 1.090000e+02, 138 iterations, 0.00 seconds (0.00 work units)

    Nodes    |    Current Node    |     Objective Bounds      |     Work
 Expl Unexpl |  Obj  Depth IntInf | Incumbent    BestBd   Gap | It/Node Time

     0     0  109.00000    0   17   42.00000  109.00000   160%     -    0s
H    0     0                      45.0000000  109.00000   142%     -    0s
H    0     0                      48.0000000  109.00000   127%     -    0s
H    0     0                      55.0000000  109.00000  98.2%     -    0s
     0     0  109.00000    0   27   55.00000  109.00000  98.2%     -    0s
     0     0  109.00000    0   28   55.00000  109.00000  98.2%     -    0s
H    0     0                      58.0000000  109.00000  87.9%     -    0s
     0     0  109.00000    0   27   58.00000  109.00000  87.9%     -    0s
     0     0  109.00000    0   26   58.00000  109.00000  87.9%     -    0s
     0     0  109.00000    0   27   58.00000  109.00000  87.9%     -    0s
     0     0  109.00000    0   24   58.00000  109.00000  87.9%     -    0s
     0     0  108.56250    0   24   58.00000  108.56250  87.2%     -    0s
     0     0  108.56250    0   24   58.00000  108.56250  87.2%     -    0s
     0     0  106.00000    0   24   58.00000  106.00000  82.8%     -    0s
     0     0  106.00000    0   24   58.00000  106.00000  82.8%     -    0s
     0     0  105.25000    0   24   58.00000  105.25000  81.5%     -    0s
     0     0  105.25000    0   24   58.00000  105.25000  81.5%     -    0s
     0     0  104.18750    0   24   58.00000  104.18750  79.6%     -    0s
     0     0  104.18750    0   24   58.00000  104.18750  79.6%     -    0s
     0     2  104.18750    0   24   58.00000  104.18750  79.6%     -    0s

Cutting planes:
  Cover: 39
  MIR: 1
  Inf proof: 77
  Zero half: 2
  Mod-K: 1

Explored 7003 nodes (322046 simplex iterations) in 1.12 seconds (1.96 work units)
Thread count was 16 (of 16 available processors)

Solution count 6: 58 55 48 ... 21

Optimal solution found (tolerance 1.00e-04)
Best objective 5.800000000000e+01, best bound 5.800000000000e+01, gap 0.0000%

Wrote result file '/root/bgw/data/results/2026_03_24_13_37_13_set_vm-3-t1_vm-3-t1_s008_g001_max.sol'

